&CONTROL
  calculation = 'relax',
  outdir = './out',
  prefix = 'qmof-0e64acd_relax',
  pseudo_dir = '.',
/
&SYSTEM
  degauss = 0.01,
  ecutrho = 400.0,
  ecutwfc = 50.0,
  ibrav = 0,
  nspin = 2,
  occupations = 'smearing',
  smearing = 'gaussian',
  nat = 200,
  ntyp = 5,
/
&ELECTRONS
  conv_thr = 1d-06,
  mixing_beta = 0.3,
/
&IONS
  forc_conv_thr = 0.001,
  ion_dynamics = 'cg',
/
&CELL
/
ATOMIC_SPECIES
  Al  26.9815 /Users/moinkhwaja/Documents/GitHub/HTS_MOF_Hydrogenation /DFT/SSSP_1.3.0_PBE_efficiency/Al.pbe-n-kjpaw_psl.1.0.0.UPF
  C  12.0107 /Users/moinkhwaja/Documents/GitHub/HTS_MOF_Hydrogenation /DFT/SSSP_1.3.0_PBE_efficiency/C.pbe-n-kjpaw_psl.1.0.0.UPF
  H  1.0079 /Users/moinkhwaja/Documents/GitHub/HTS_MOF_Hydrogenation /DFT/SSSP_1.3.0_PBE_efficiency/H.pbe-rrkjus_psl.1.0.0.UPF
  N  14.0067 /Users/moinkhwaja/Documents/GitHub/HTS_MOF_Hydrogenation /DFT/SSSP_1.3.0_PBE_efficiency/N.pbe-n-radius_5.UPF
  O  15.9994 /Users/moinkhwaja/Documents/GitHub/HTS_MOF_Hydrogenation /DFT/SSSP_1.3.0_PBE_efficiency/O.pbe-n-kjpaw_psl.0.1.UPF
ATOMIC_POSITIONS crystal
  Al 0.167680 0.591589 0.499172
  Al 0.902761 0.562938 0.501751
  Al 0.923506 0.339765 0.497838
  Al 0.167895 0.090045 0.985634
  Al 0.427231 0.326535 0.983709
  Al 0.419735 0.090345 0.986475
  H 0.746466 0.544079 0.210725
  H 0.525007 0.389018 0.856023
  H 0.553965 0.412075 0.274617
  H 0.672012 0.474667 0.618920
  H 0.585996 0.520328 0.690284
  H 0.774081 0.109880 0.704523
  H 0.796998 0.218189 0.627819
  H 0.105661 0.125021 0.855884
  H 0.012397 0.029294 0.777133
  H 0.894938 0.475186 0.265240
  H 0.972443 0.045028 0.692321
  H 0.130054 0.491418 0.195590
  H 0.338635 0.505749 0.867058
  H 0.357461 0.634747 0.795722
  H 0.333501 0.650316 0.709503
  H 0.286649 0.801173 0.618788
  H 0.463097 0.915191 0.776681
  H 0.429559 0.881217 0.689565
  H 0.813894 0.270102 0.203857
  H 0.826845 0.661750 0.719695
  H 0.907421 0.674713 0.637065
  H 0.040171 0.148379 0.206475
  H 0.306933 0.552835 0.271318
  H 0.217523 0.209316 0.281610
  H 0.962878 0.298077 0.251923
  H 0.965605 0.528623 0.128058
  H 0.493345 0.488973 0.813636
  H 0.497619 0.551876 0.760834
  H 0.902853 0.201472 0.886980
  H 0.752394 0.923593 0.788419
  H 0.951716 0.165414 0.581167
  H 0.928627 0.075585 0.631908
  H 0.288891 0.579854 0.586318
  H 0.384264 0.401874 0.226559
  H 0.355896 0.636936 0.643077
  H 0.476938 0.923745 0.844031
  H 0.419050 0.931667 0.899315
  H 0.920762 0.832317 0.860269
  H 0.022437 0.901417 0.909236
  H 0.754989 0.649636 0.794705
  H 0.838115 0.662328 0.843884
  H 0.600659 0.052615 0.248610
  H 0.568547 0.092848 0.301984
  H 0.349983 0.067819 0.161092
  H 0.347054 0.851786 0.229492
  H 0.280064 0.974634 0.298136
  H 0.149321 0.632162 0.257786
  H 0.933805 0.778592 0.254267
  H 0.134099 0.000565 0.227214
  H 0.372175 0.666468 0.479592
  H 0.962857 0.992600 0.009608
  C 0.063088 0.699401 0.431252
  C 0.707716 0.347390 0.339748
  C 0.441600 0.184745 0.211154
  C 0.197575 0.271457 0.262186
  C 0.769861 0.376263 0.432329
  C 0.099175 0.237929 0.221437
  C 0.234499 0.334867 0.098586
  C 0.118888 0.364107 0.379954
  C 0.290776 0.379770 0.232690
  C 0.193175 0.346296 0.190630
  C 0.248066 0.463178 0.256408
  C 0.154451 0.354975 0.287236
  C 0.723532 0.353228 0.383487
  C 0.149576 0.429626 0.215628
  C 0.056466 0.321186 0.245334
  C 0.215093 0.342438 0.141074
  C 0.096788 0.389483 0.427990
  C 0.134536 0.358391 0.336955
  C 0.219010 0.904440 0.272970
  C 0.255590 0.836134 0.235874
  C 0.227799 0.916555 0.105596
  C 0.071853 0.735822 0.381738
  C 0.135750 0.918042 0.234497
  C 0.567201 0.270777 0.224603
  C 0.174882 0.852201 0.196035
  C 0.026380 0.796425 0.249176
  C 0.108438 0.781849 0.289183
  C 0.062228 0.727734 0.212228
  C 0.073459 0.697537 0.571911
  C 0.146205 0.714270 0.250742
  C 0.203762 0.885619 0.147423
  C 0.083383 0.753002 0.338415
  C 0.686270 0.411375 0.640264
  C 0.656048 0.396484 0.689361
  C 0.676600 0.341819 0.189467
  C 0.605091 0.370401 0.789568
  C 0.580343 0.449979 0.760681
  C 0.604994 0.460535 0.712049
  C 0.576464 0.352280 0.838662
  C 0.613845 0.287757 0.867643
  C 0.777862 0.372958 0.567597
  C 0.757452 0.267150 0.645106
  C 0.731859 0.252874 0.694546
  C 0.681367 0.317692 0.717317
  C 0.748224 0.169174 0.722750
  C 0.652336 0.230051 0.255067
  C 0.725101 0.155758 0.771384
  C 0.689412 0.232574 0.796842
  C 0.657512 0.305778 0.767697
  C 0.683413 0.239033 0.847974
  C 0.736306 0.347599 0.618293
  C 0.056512 0.252659 0.640545
  C 0.098484 0.380728 0.566864
  C 0.082551 0.240118 0.689774
  C 0.124770 0.220317 0.789486
  C 0.051209 0.116751 0.760482
  C 0.693873 0.343652 0.288912
  C 0.029859 0.127156 0.712744
  C 0.146392 0.211949 0.838710
  C 0.225049 0.313900 0.865683
  C 0.216867 0.465632 0.643690
  C 0.225035 0.458204 0.695079
  C 0.162085 0.344698 0.717122
  C 0.294385 0.561260 0.724801
  C 0.612388 0.381766 0.258346
  C 0.307840 0.553723 0.773636
  C 0.255863 0.439852 0.796290
  C 0.757451 0.303111 0.219927
  C 0.180395 0.335225 0.767593
  C 0.279161 0.427171 0.845083
  C 0.124351 0.364660 0.616870
  C 0.212812 0.785147 0.642645
  C 0.234955 0.811370 0.692243
  C 0.275337 0.856973 0.793492
  C 0.371554 0.878900 0.761996
  C 0.353559 0.859512 0.713180
  C 0.719576 0.454875 0.223970
  C 0.296706 0.880927 0.844291
  C 0.801688 0.416594 0.252948
  C 0.205700 0.886034 0.872761
  C 0.998349 0.714600 0.652846
  C 0.016625 0.738443 0.702871
  C 0.136285 0.787476 0.723177
  C 0.919083 0.709726 0.734429
  C 0.937033 0.734436 0.783310
  C 0.058029 0.794844 0.804110
  C 0.156103 0.812638 0.773961
  C 0.086445 0.845445 0.852133
  C 0.637809 0.319239 0.095362
  C 0.661055 0.334272 0.138593
  C 0.095385 0.736671 0.623266
  C 0.254193 0.299901 0.051776
  C 0.576969 0.288866 0.049033
  C 0.253355 0.967424 0.057808
  C 0.254848 0.294261 0.915502
  C 0.563222 0.263402 0.917627
  C 0.237776 0.945780 0.919975
  C 0.981735 0.647523 0.173239
  C 0.766533 0.224262 0.882572
  C 0.711138 0.045173 0.794024
  N 0.541053 0.521303 0.782982
  N 0.966336 0.156861 0.616736
  N 0.296463 0.567438 0.622283
  N 0.403415 0.903137 0.864302
  N 0.000558 0.854729 0.877332
  N 0.835357 0.701666 0.812392
  N 0.626080 0.119334 0.273711
  O 0.170171 0.491293 0.445564
  O 0.550597 0.187871 0.029899
  O 0.355437 0.990218 0.039881
  O 0.149404 0.686491 0.447582
  O 0.172022 0.986194 0.936994
  O 0.178568 0.201083 0.936287
  O 0.360161 0.370753 0.933456
  O 0.546502 0.343932 0.937801
  O 0.524311 0.158370 0.934064
  O 0.334344 0.961366 0.944119
  O 0.340226 0.170139 0.986796
  O 0.787492 0.467595 0.548333
  O 0.967013 0.678901 0.454060
  O 0.784858 0.472460 0.452634
  O 0.798801 0.302272 0.450767
  O 0.001319 0.308145 0.448320
  O 0.166859 0.478223 0.546071
  O 0.154705 0.685199 0.550860
  O 0.970678 0.673081 0.551840
  O 0.896582 0.654762 0.155847
  O 0.017444 0.569829 0.156339
  O 0.770454 0.243824 0.926038
  O 0.808129 0.302249 0.546959
  O 0.849828 0.202502 0.861039
  O 0.643108 0.992646 0.827296
  O 0.773008 0.998084 0.771683
  O 0.355065 0.160811 0.237025
  O 0.434317 0.129247 0.168607
  O 0.002904 0.296569 0.543990
  O 0.995448 0.496614 0.498701
  O 0.174578 0.988367 0.039183
  O 0.175294 0.196729 0.037123
  O 0.350850 0.372732 0.029719
  O 0.547194 0.363621 0.031941
  O 0.326576 0.677296 0.504899
  O 0.008612 0.009554 0.980363
K_POINTS gamma
CELL_PARAMETERS angstrom
  6.204951 11.059556 -0.188492
  -12.837810 -0.000000 -0.081503
  -0.000000 -0.000000 27.699863